Route #1: 28 61 21 47 36 69 71 60 70 20 37 5 15 57
Route #2: 13 54 19 14 59 66 65 11 53 35
Route #3: 7 8 46 34 52 27 45 29 48 30 4
Route #4: 67 74 2 73 62 22 64 42 41 43 1 33
Route #5: 16 63 23 56 49 24 18 55 25 50 32 44 3
Route #6: 40 9 39 31 10 38 58 72 12 26
Route #7: 17 51 6 68 75
Cost 734